40
2 0 3
2 1 4
3 1 2
4 1 3
4 3 3
6 0 3
6 1 2
6 3 4
6 4 4
6 5 4
7 2 1
7 3 2
7 4 1
7 5 1
8 0 4
8 1 4
8 4 1
8 5 1
8 6 2
8 7 4
9 2 1
9 3 2
9 4 3
9 5 1
9 6 2
9 8 2
10 1 2
10 2 4
10 6 3
10 8 1
11 0 3
11 2 3
11 5 4
11 6 3
11 7 2
11 9 1
11 10 3
12 1 3
12 9 4
13 1 1
13 2 2
13 4 4
13 5 2
13 6 3
13 7 4
13 9 1
13 10 3
13 11 4
14 1 4
14 3 4
14 4 4
14 7 2
14 8 3
14 9 4
14 10 4
14 12 3
15 0 4
15 1 4
15 3 3
15 4 4
15 7 1
15 9 3
15 11 4
15 13 4
15 14 1
16 0 2
16 1 4
16 4 2
16 7 2
16 9 2
16 11 3
16 15 4
17 0 2
17 2 2
17 4 3
17 6 3
17 8 4
17 10 4
17 12 2
17 14 1
17 16 4
18 0 2
18 2 3
18 3 1
18 4 2
18 5 1
18 6 4
18 7 2
18 8 3
18 9 3
18 13 1
18 14 2
18 17 4
19 0 1
19 2 4
19 3 1
19 7 4
19 8 3
19 9 4
19 10 1
19 18 2
20 1 1
20 3 2
20 7 2
20 11 3
20 13 2
20 14 1
20 16 4
21 1 2
21 2 1
21 7 1
21 8 1
21 11 1
21 14 4
21 18 3
21 19 1
21 20 1
22 1 1
22 2 4
22 3 2
22 7 1
22 8 3
22 10 3
22 11 4
22 12 1
22 15 3
22 16 2
22 17 1
22 18 2
22 19 1
22 20 1
23 1 2
23 3 4
23 6 4
23 7 2
23 9 1
23 10 3
23 11 2
23 15 3
23 16 2
23 17 2
23 18 3
23 19 3
23 20 2
23 21 4
23 22 1
24 0 1
24 7 3
24 9 4
24 10 2
24 12 4
24 13 3
24 14 1
24 15 1
24 18 1
24 19 4
25 3 2
25 4 1
25 5 4
25 6 1
25 7 2
25 8 1
25 9 1
25 10 2
25 11 1
25 16 1
25 17 4
25 18 2
25 19 3
25 20 3
25 21 4
25 22 2
26 0 2
26 2 4
26 3 2
26 4 2
26 5 1
26 12 2
26 13 2
26 14 2
26 18 2
26 19 4
26 21 1
26 24 1
27 0 1
27 1 1
27 2 4
27 3 1
27 4 2
27 7 3
27 10 3
27 11 4
27 12 3
27 13 3
27 14 4
27 15 4
27 16 3
27 21 3
27 22 4
27 25 3
27 26 2
28 0 4
28 2 1
28 4 3
28 5 1
28 9 4
28 10 4
28 11 3
28 12 4
28 14 4
28 18 1
28 19 4
28 20 2
28 21 2
28 22 3
28 23 2
28 26 4
28 27 2
29 2 1
29 3 3
29 4 4
29 10 3
29 13 3
29 16 4
29 17 1
29 19 4
29 22 2
29 23 4
29 26 3
30 0 4
30 2 4
30 8 4
30 9 4
30 10 4
30 12 4
30 13 2
30 16 4
30 18 3
30 19 4
30 20 4
30 21 1
30 22 2
30 23 1
30 27 2
30 28 2
31 0 2
31 4 4
31 6 4
31 8 2
31 11 3
31 12 1
31 16 2
31 19 1
31 22 2
31 25 4
31 26 3
31 27 2
31 29 1
31 30 4
32 0 2
32 2 4
32 3 2
32 4 1
32 6 3
32 7 4
32 9 3
32 17 4
32 18 1
32 19 3
32 20 1
32 21 1
32 23 1
32 24 2
32 26 4
32 27 4
32 28 3
32 31 1
33 0 4
33 1 4
33 2 2
33 3 4
33 5 4
33 6 2
33 8 3
33 10 4
33 11 1
33 13 4
33 14 3
33 15 2
33 16 2
33 17 2
33 18 4
33 19 1
33 20 3
33 25 1
33 27 1
33 28 1
33 29 2
33 30 4
33 31 1
34 2 4
34 3 2
34 4 4
34 5 3
34 8 2
34 9 2
34 21 3
34 23 4
34 27 3
34 31 2
34 33 2
35 4 1
35 8 2
35 9 4
35 10 2
35 12 2
35 13 3
35 14 1
35 17 4
35 18 1
35 21 3
35 22 1
35 23 4
35 27 3
35 28 4
35 31 4
35 33 3
36 1 4
36 2 1
36 8 2
36 9 2
36 10 2
36 11 2
36 14 1
36 16 1
36 17 1
36 18 3
36 23 1
36 26 3
36 27 3
36 28 1
36 29 3
36 31 3
36 35 1
37 1 3
37 3 3
37 4 4
37 5 4
37 6 4
37 8 1
37 10 3
37 13 2
37 14 4
37 16 1
37 17 4
37 18 1
37 19 2
37 22 4
37 25 4
37 26 3
37 27 3
37 31 3
37 33 4
37 34 1
37 35 3
38 3 2
38 5 1
38 6 1
38 7 3
38 8 1
38 10 4
38 11 2
38 12 2
38 14 1
38 16 3
38 18 1
38 21 3
38 23 4
38 26 3
38 27 4
38 28 4
38 29 3
38 30 2
38 31 3
38 33 2
38 35 4
39 2 1
39 3 1
39 6 4
39 8 4
39 10 4
39 11 1
39 13 1
39 14 2
39 17 1
39 18 1
39 20 4
39 22 3
39 24 1
39 27 1
39 28 1
39 29 3
39 34 4
39 36 3
